
Gurobi 6.5.2 (linux64) logging started Sun Sep 18 18:52:04 2016


Gurobi 6.5.2 (linux64) logging started Sun Sep 18 18:52:04 2016

Optimize a model with 201 rows, 3565 columns and 8259 nonzeros
Coefficient statistics:
  Matrix range    [1e+00, 2e+00]
  Objective range [1e+00, 1e+02]
  Bounds range    [1e+00, 1e+00]
  RHS range       [1e+00, 1e+00]
Found heuristic solution: objective 1644
Presolve removed 43 rows and 1 columns
Presolve time: 0.01s
Presolved: 158 rows, 3564 columns, 7759 nonzeros
Variable types: 0 continuous, 3564 integer (3564 binary)

Root relaxation: objective 5.696250e+02, 108 iterations, 0.00 seconds

    Nodes    |    Current Node    |     Objective Bounds      |     Work
 Expl Unexpl |  Obj  Depth IntInf | Incumbent    BestBd   Gap | It/Node Time

     0     0  569.62500    0   44 1644.00000  569.62500  65.4%     -    0s
     0     0  615.50000    0   29 1644.00000  615.50000  62.6%     -    0s
     0     0  632.08333    0   21 1644.00000  632.08333  61.6%     -    0s
     0     0  633.07143    0   23 1644.00000  633.07143  61.5%     -    0s
     0     0  633.07143    0   23 1644.00000  633.07143  61.5%     -    0s
     0     2  633.07143    0   23 1644.00000  633.07143  61.5%     -    0s
* 2148  1558             149    1063.0000000  640.25000  39.8%   4.0    3s
* 2228  1568             145    1051.0000000  640.25000  39.1%   4.0    4s
  3338  2083  951.50000  158    8 1051.00000  640.25000  39.1%   4.1    5s
* 4035  2494             163    1045.0000000  640.33333  38.7%   4.2    5s
* 7871  5467             203    1043.0000000  641.50000  38.5%   4.1    7s
  8274  5786  686.50000   57    2 1043.00000  641.50000  38.5%   4.0   10s

Cutting planes:
  Gomory: 44
  Cover: 97
  MIR: 2
  Flow cover: 6
  Zero half: 8
  Lazy constraints: 1022

Explored 8373 nodes (34138 simplex iterations) in 10.05 seconds
Thread count was 8 (of 8 available processors)

Time limit reached
Best objective 1.043000000000e+03, best bound 6.420000000000e+02, gap 38.4468%
